1 -1 -2 0
1 -1 3 0
1 4 2 0
1 5 6 0
1 -5 7 0
1 5 4 0
1 3 8 0
1 -3 5 0
1 3 4 0
1 3 -9 0
1 9 10 0
1 9 -11 0
1 -2 -12 0
1 2 13 0
1 -14 -8 0
1 -14 12 0
1 -11 -15 0
1 11 3 0
1 -11 -7 0
1 16 15 0
1 -16 -12 0
1 -17 -18 0
1 -17 19 0
1 -17 3 0
1 -20 3 0
1 21 -20 0
1 -21 16 0
1 -21 22 0
1 -21 11 0
1 15 23 0
1 -15 21 0
1 -15 4 0
1 -15 24 0
1 -7 -5 0
1 7 -25 0
1 7 -26 0
1 18 -16 0
1 18 17 0
1 -18 11 0
1 -23 8 0
1 23 -19 0
1 -23 -27 0
1 28 -21 0
1 -28 -27 0
1 -29 -23 0
1 -19 17 0
1 19 -30 0
1 -27 31 0
1 -27 23 0
1 -27 -32 0
1 27 22 0
1 32 20 0
1 32 -17 0
1 -33 34 0
1 33 35 0
1 -33 -36 0
1 34 -37 0
1 -34 -35 0
1 -34 36 0
1 38 6 0
1 -38 4 0
1 -6 -38 0
1 -39 40 0
1 39 -33 0
1 -37 35 0
1 37 33 0
1 35 34 0
1 41 -39 0
1 -41 -42 0
1 -12 39 0
1 -12 43 0
1 -12 -36 0
1 12 41 0
1 -40 17 0
1 40 14 0
1 44 39 0
1 44 -40 0
1 -44 45 0
1 43 -8 0
1 43 46 0
1 43 25 0
1 43 13 0
1 43 -41 0
1 47 44 0
1 47 -48 0
1 -42 12 0
1 49 -44 0
1 49 46 0
1 -49 -40 0
1 -49 -50 0
1 49 41 0
1 13 -51 0
1 13 47 0
1 -13 9 0
1 8 -43 0
1 8 52 0
1 -8 -7 0
1 -8 -13 0
1 8 -53 0
1 25 54 0
1 25 -7 0
1 -25 -45 0
1 -25 55 0
1 -56 -54 0
1 56 -25 0
1 -56 -55 0
1 -52 -56 0
1 52 8 0
1 52 -57 0
1 52 24 0
1 53 52 0
1 -53 57 0
1 53 58 0
1 59 -60 0
1 -59 -40 0
1 45 -46 0
1 45 -61 0
1 -45 57 0
1 22 -62 0
1 22 -21 0
1 -24 -62 0
1 63 26 0
1 -63 64 0
1 -63 -27 0
1 -63 53 0
1 -58 32 0
1 58 27 0
1 -65 56 0
1 65 63 0
1 65 3 0
1 -65 30 0
1 -54 -66 0
1 54 -67 0
1 54 9 0
1 54 68 0
1 62 -69 0
1 62 -70 0
1 62 -63 0
1 -62 25 0
1 62 -55 0
1 55 69 0
1 -55 70 0
1 -55 62 0
1 -55 71 0
1 -67 54 0
1 -67 -29 0
1 -30 72 0
1 -30 -67 0
1 30 29 0
1 -66 26 0
1 73 -74 0
1 -73 26 0
1 -73 71 0
1 64 75 0
1 64 -66 0
1 72 76 0
1 72 64 0
1 26 74 0
1 -26 -69 0
1 26 -7 0
1 26 -73 0
1 74 77 0
1 -74 -30 0
1 -76 -78 0
1 -78 79 0
1 -78 -68 0
1 -78 80 0
1 75 72 0
1 75 81 0
1 -81 -64 0
1 81 -82 0
1 -80 -75 0
1 -80 -76 0
1 -83 -75 0
1 -83 66 0
1 83 81 0
1 83 -73 0
1 82 -79 0
1 -79 75 0
1 -79 81 0
1 46 -84 0
1 -85 42 0
1 85 -47 0
1 86 87 0
1 -86 88 0
1 -86 89 0
1 -86 59 0
1 86 45 0
1 -86 90 0
1 90 84 0
1 -84 85 0
1 -84 57 0
1 -84 -90 0
1 87 -46 0
1 91 -86 0
1 -91 -46 0
1 -91 35 0
1 60 84 0
1 60 45 0
1 -57 -52 0
1 57 -62 0
1 -57 -84 0
1 -57 -30 0
1 -70 61 0
1 70 92 0
1 -70 -93 0
1 -71 -73 0
1 -89 -77 0
1 89 -71 0
1 -48 89 0
1 -48 -60 0
1 48 86 0
1 -48 90 0
1 -50 -60 0
1 50 -57 0
1 -69 89 0
1 -69 -65 0
1 -69 -55 0
1 68 89 0
1 68 -94 0
1 -68 78 0
1 68 55 0
1 77 -75 0
1 -77 93 0
1 -95 81 0
1 -93 68 0
1 -94 61 0
1 94 68 0
1 61 -45 0
